Ordonnancement/plne/source/petit_instance/3job/3job_10.dat
data;
param nombreJob := 3;
param nombreRessource := 3;
param duree := 1 10 2 9 3 6;
param capaciteRessource := 1 7 2 16 3 10;
param besoinRessource : 1 2 3 :=
                    1   4 4 6
                    2   4 7 1
                    3   1 4 1;
end;

