Ordonnancement/plne/source/glpk_resultat/3job/3job_10.sol
Problem:    glpsolRcpsp
Rows:       223
Columns:    76 (75 integer, 75 binary)
Non-zeros:  1417
Status:     INTEGER OPTIMAL
Objective:  obj = 19 (MINimum)

   No.   Row name        Activity     Lower bound   Upper bound
------ ------------    ------------- ------------- -------------
     1 periode[1]                 10            10             = 
     2 periode[2]                  9             9             = 
     3 periode[3]                  6             6             = 
     4 complet[1,1]                8                          10 
     5 complet[1,2]                7                          10 
     6 complet[1,3]                6                          10 
     7 complet[1,4]                5                          10 
     8 complet[1,5]                4                          10 
     9 complet[1,6]                3                          10 
    10 complet[1,7]                2                          10 
    11 complet[1,8]                1                          10 
    12 complet[1,9]                0                          10 
    13 complet[1,10]
                                  10                          10 
    14 complet[1,11]
                                   0                          10 
    15 complet[1,12]
                                   0                          10 
    16 complet[1,13]
                                   0                          10 
    17 complet[1,14]
                                   0                          10 
    18 complet[1,15]
                                   0                          10 
    19 complet[1,16]
                                   0                          10 
    20 complet[1,17]
                                   0                          10 
    21 complet[1,18]
                                   0                          10 
    22 complet[1,19]
                                   0                          10 
    23 complet[1,20]
                                   0                          10 
    24 complet[1,21]
                                   0                          10 
    25 complet[1,22]
                                   0                          10 
    26 complet[1,23]
                                   0                          10 
    27 complet[2,1]                9                           9 
    28 complet[2,2]                9                           9 
    29 complet[2,3]                9                           9 
    30 complet[2,4]                9                           9 
    31 complet[2,5]                9                           9 
    32 complet[2,6]                9                           9 
    33 complet[2,7]                9                           9 
    34 complet[2,8]                9                           9 
    35 complet[2,9]                9                           9 
    36 complet[2,10]
                                  -1                           9 
    37 complet[2,11]
                                   7                           9 
    38 complet[2,12]
                                   6                           9 
    39 complet[2,13]
                                   5                           9 
    40 complet[2,14]
                                   4                           9 
    41 complet[2,15]
                                   3                           9 
    42 complet[2,16]
                                   2                           9 
    43 complet[2,17]
                                   1                           9 
    44 complet[2,18]
                                   0                           9 
    45 complet[2,19]
                                   9                           9 
    46 complet[2,20]
                                   0                           9 
    47 complet[2,21]
                                   0                           9 
    48 complet[2,22]
                                   0                           9 
    49 complet[2,23]
                                   0                           9 
    50 complet[3,1]                6                           6 
    51 complet[3,2]                6                           6 
    52 complet[3,3]                6                           6 
    53 complet[3,4]                6                           6 
    54 complet[3,5]                6                           6 
    55 complet[3,6]               -1                           6 
    56 complet[3,7]                4                           6 
    57 complet[3,8]                3                           6 
    58 complet[3,9]                2                           6 
    59 complet[3,10]
                                   1                           6 
    60 complet[3,11]
                                   0                           6 
    61 complet[3,12]
                                   6                           6 
    62 complet[3,13]
                                   0                           6 
    63 complet[3,14]
                                   0                           6 
    64 complet[3,15]
                                   0                           6 
    65 complet[3,16]
                                   0                           6 
    66 complet[3,17]
                                   0                           6 
    67 complet[3,18]
                                   0                           6 
    68 complet[3,19]
                                   0                           6 
    69 complet[3,20]
                                   0                           6 
    70 complet[3,21]
                                   0                           6 
    71 complet[3,22]
                                   0                           6 
    72 complet[3,23]
                                   0                           6 
    73 cmax[1,1]                  18            -0               
    74 cmax[1,2]                  17            -0               
    75 cmax[1,3]                  16            -0               
    76 cmax[1,4]                  15            -0               
    77 cmax[1,5]                  14            -0               
    78 cmax[1,6]                  13            -0               
    79 cmax[1,7]                  12            -0               
    80 cmax[1,8]                  11            -0               
    81 cmax[1,9]                  10            -0               
    82 cmax[1,10]                  9            -0               
    83 cmax[1,11]                 19            -0               
    84 cmax[1,12]                 19            -0               
    85 cmax[1,13]                 19            -0               
    86 cmax[1,14]                 19            -0               
    87 cmax[1,15]                 19            -0               
    88 cmax[1,16]                 19            -0               
    89 cmax[1,17]                 19            -0               
    90 cmax[1,18]                 19            -0               
    91 cmax[1,19]                 19            -0               
    92 cmax[1,20]                 19            -0               
    93 cmax[1,21]                 19            -0               
    94 cmax[1,22]                 19            -0               
    95 cmax[1,23]                 19            -0               
    96 cmax[1,24]                 19            -0               
    97 cmax[1,25]                 19            -0               
    98 cmax[2,1]                  19            -0               
    99 cmax[2,2]                  19            -0               
   100 cmax[2,3]                  19            -0               
   101 cmax[2,4]                  19            -0               
   102 cmax[2,5]                  19            -0               
   103 cmax[2,6]                  19            -0               
   104 cmax[2,7]                  19            -0               
   105 cmax[2,8]                  19            -0               
   106 cmax[2,9]                  19            -0               
   107 cmax[2,10]                 19            -0               
   108 cmax[2,11]                  8            -0               
   109 cmax[2,12]                  7            -0               
   110 cmax[2,13]                  6            -0               
   111 cmax[2,14]                  5            -0               
   112 cmax[2,15]                  4            -0               
   113 cmax[2,16]                  3            -0               
   114 cmax[2,17]                  2            -0               
   115 cmax[2,18]                  1            -0               
   116 cmax[2,19]                  0            -0               
   117 cmax[2,20]                 19            -0               
   118 cmax[2,21]                 19            -0               
   119 cmax[2,22]                 19            -0               
   120 cmax[2,23]                 19            -0               
   121 cmax[2,24]                 19            -0               
   122 cmax[2,25]                 19            -0               
   123 cmax[3,1]                  19            -0               
   124 cmax[3,2]                  19            -0               
   125 cmax[3,3]                  19            -0               
   126 cmax[3,4]                  19            -0               
   127 cmax[3,5]                  19            -0               
   128 cmax[3,6]                  19            -0               
   129 cmax[3,7]                  12            -0               
   130 cmax[3,8]                  11            -0               
   131 cmax[3,9]                  10            -0               
   132 cmax[3,10]                  9            -0               
   133 cmax[3,11]                  8            -0               
   134 cmax[3,12]                  7            -0               
   135 cmax[3,13]                 19            -0               
   136 cmax[3,14]                 19            -0               
   137 cmax[3,15]                 19            -0               
   138 cmax[3,16]                 19            -0               
   139 cmax[3,17]                 19            -0               
   140 cmax[3,18]                 19            -0               
   141 cmax[3,19]                 19            -0               
   142 cmax[3,20]                 19            -0               
   143 cmax[3,21]                 19            -0               
   144 cmax[3,22]                 19            -0               
   145 cmax[3,23]                 19            -0               
   146 cmax[3,24]                 19            -0               
   147 cmax[3,25]                 19            -0               
   148 ressource[1,1]
                                   4                           7 
   149 ressource[1,2]
                                   4                           7 
   150 ressource[1,3]
                                   4                           7 
   151 ressource[1,4]
                                   4                           7 
   152 ressource[1,5]
                                   4                           7 
   153 ressource[1,6]
                                   4                           7 
   154 ressource[1,7]
                                   5                           7 
   155 ressource[1,8]
                                   5                           7 
   156 ressource[1,9]
                                   5                           7 
   157 ressource[1,10]
                                   5                           7 
   158 ressource[1,11]
                                   5                           7 
   159 ressource[1,12]
                                   5                           7 
   160 ressource[1,13]
                                   4                           7 
   161 ressource[1,14]
                                   4                           7 
   162 ressource[1,15]
                                   4                           7 
   163 ressource[1,16]
                                   4                           7 
   164 ressource[1,17]
                                   4                           7 
   165 ressource[1,18]
                                   4                           7 
   166 ressource[1,19]
                                   4                           7 
   167 ressource[1,20]
                                   0                           7 
   168 ressource[1,21]
                                   0                           7 
   169 ressource[1,22]
                                   0                           7 
   170 ressource[1,23]
                                   0                           7 
   171 ressource[1,24]
                                   0                           7 
   172 ressource[1,25]
                                   0                           7 
   173 ressource[2,1]
                                   4                          16 
   174 ressource[2,2]
                                   4                          16 
   175 ressource[2,3]
                                   4                          16 
   176 ressource[2,4]
                                   4                          16 
   177 ressource[2,5]
                                   4                          16 
   178 ressource[2,6]
                                   4                          16 
   179 ressource[2,7]
                                   8                          16 
   180 ressource[2,8]
                                   8                          16 
   181 ressource[2,9]
                                   8                          16 
   182 ressource[2,10]
                                   8                          16 
   183 ressource[2,11]
                                  11                          16 
   184 ressource[2,12]
                                  11                          16 
   185 ressource[2,13]
                                   7                          16 
   186 ressource[2,14]
                                   7                          16 
   187 ressource[2,15]
                                   7                          16 
   188 ressource[2,16]
                                   7                          16 
   189 ressource[2,17]
                                   7                          16 
   190 ressource[2,18]
                                   7                          16 
   191 ressource[2,19]
                                   7                          16 
   192 ressource[2,20]
                                   0                          16 
   193 ressource[2,21]
                                   0                          16 
   194 ressource[2,22]
                                   0                          16 
   195 ressource[2,23]
                                   0                          16 
   196 ressource[2,24]
                                   0                          16 
   197 ressource[2,25]
                                   0                          16 
   198 ressource[3,1]
                                   6                          10 
   199 ressource[3,2]
                                   6                          10 
   200 ressource[3,3]
                                   6                          10 
   201 ressource[3,4]
                                   6                          10 
   202 ressource[3,5]
                                   6                          10 
   203 ressource[3,6]
                                   6                          10 
   204 ressource[3,7]
                                   7                          10 
   205 ressource[3,8]
                                   7                          10 
   206 ressource[3,9]
                                   7                          10 
   207 ressource[3,10]
                                   7                          10 
   208 ressource[3,11]
                                   2                          10 
   209 ressource[3,12]
                                   2                          10 
   210 ressource[3,13]
                                   1                          10 
   211 ressource[3,14]
                                   1                          10 
   212 ressource[3,15]
                                   1                          10 
   213 ressource[3,16]
                                   1                          10 
   214 ressource[3,17]
                                   1                          10 
   215 ressource[3,18]
                                   1                          10 
   216 ressource[3,19]
                                   1                          10 
   217 ressource[3,20]
                                   0                          10 
   218 ressource[3,21]
                                   0                          10 
   219 ressource[3,22]
                                   0                          10 
   220 ressource[3,23]
                                   0                          10 
   221 ressource[3,24]
                                   0                          10 
   222 ressource[3,25]
                                   0                          10 
   223 obj                        19                             

   No. Column name       Activity     Lower bound   Upper bound
------ ------------    ------------- ------------- -------------
     1 x[1,1]       *              1             0             1 
     2 x[1,2]       *              1             0             1 
     3 x[1,3]       *              1             0             1 
     4 x[1,4]       *              1             0             1 
     5 x[1,5]       *              1             0             1 
     6 x[1,6]       *              1             0             1 
     7 x[1,7]       *              1             0             1 
     8 x[1,8]       *              1             0             1 
     9 x[1,9]       *              1             0             1 
    10 x[1,10]      *              1             0             1 
    11 x[1,11]      *              0             0             1 
    12 x[1,12]      *              0             0             1 
    13 x[1,13]      *              0             0             1 
    14 x[1,14]      *              0             0             1 
    15 x[1,15]      *              0             0             1 
    16 x[1,16]      *              0             0             1 
    17 x[1,17]      *              0             0             1 
    18 x[1,18]      *              0             0             1 
    19 x[1,19]      *              0             0             1 
    20 x[1,20]      *              0             0             1 
    21 x[1,21]      *              0             0             1 
    22 x[1,22]      *              0             0             1 
    23 x[1,23]      *              0             0             1 
    24 x[1,24]      *              0             0             1 
    25 x[1,25]      *              0             0             1 
    26 x[2,1]       *              0             0             1 
    27 x[2,2]       *              0             0             1 
    28 x[2,3]       *              0             0             1 
    29 x[2,4]       *              0             0             1 
    30 x[2,5]       *              0             0             1 
    31 x[2,6]       *              0             0             1 
    32 x[2,7]       *              0             0             1 
    33 x[2,8]       *              0             0             1 
    34 x[2,9]       *              0             0             1 
    35 x[2,10]      *              0             0             1 
    36 x[2,11]      *              1             0             1 
    37 x[2,12]      *              1             0             1 
    38 x[2,13]      *              1             0             1 
    39 x[2,14]      *              1             0             1 
    40 x[2,15]      *              1             0             1 
    41 x[2,16]      *              1             0             1 
    42 x[2,17]      *              1             0             1 
    43 x[2,18]      *              1             0             1 
    44 x[2,19]      *              1             0             1 
    45 x[2,20]      *              0             0             1 
    46 x[2,21]      *              0             0             1 
    47 x[2,22]      *              0             0             1 
    48 x[2,23]      *              0             0             1 
    49 x[2,24]      *              0             0             1 
    50 x[2,25]      *              0             0             1 
    51 x[3,1]       *              0             0             1 
    52 x[3,2]       *              0             0             1 
    53 x[3,3]       *              0             0             1 
    54 x[3,4]       *              0             0             1 
    55 x[3,5]       *              0             0             1 
    56 x[3,6]       *              0             0             1 
    57 x[3,7]       *              1             0             1 
    58 x[3,8]       *              1             0             1 
    59 x[3,9]       *              1             0             1 
    60 x[3,10]      *              1             0             1 
    61 x[3,11]      *              1             0             1 
    62 x[3,12]      *              1             0             1 
    63 x[3,13]      *              0             0             1 
    64 x[3,14]      *              0             0             1 
    65 x[3,15]      *              0             0             1 
    66 x[3,16]      *              0             0             1 
    67 x[3,17]      *              0             0             1 
    68 x[3,18]      *              0             0             1 
    69 x[3,19]      *              0             0             1 
    70 x[3,20]      *              0             0             1 
    71 x[3,21]      *              0             0             1 
    72 x[3,22]      *              0             0             1 
    73 x[3,23]      *              0             0             1 
    74 x[3,24]      *              0             0             1 
    75 x[3,25]      *              0             0             1 
    76 z                          19                             

Integer feasibility conditions:

KKT.PE: max.abs.err = 0.00e+00 on row 0
        max.rel.err = 0.00e+00 on row 0
        High quality

KKT.PB: max.abs.err = 0.00e+00 on row 0
        max.rel.err = 0.00e+00 on row 0
        High quality

End of output
